g3 0 1 0	# problem kport20
 101 27 1 0 21	# vars, constraints, objectives, ranges, eqns
 20 0	# nonlinear constraints, objectives
 0 0	# network constraints: nonlinear, linear
 78 0 0	# nonlinear vars in constraints, objectives, both
 0 0 0 1	# linear network variables; functions; arith, flags
 2 0 0 38 0	# discrete variables: binary, integer, nonlinear (b,c,o)
 187 2	# nonzeros in Jacobian, gradients
 3 4	# max name lengths: constraints, variables
 0 0 0 0 0	# common exprs: b,c,o,c1,o1
b
0 .4 1
0 .4 1
0 .4 1
0 .4 1
0 .4 1
0 .4 1
0 .4 1
0 .4 1
0 .4 1
0 .4 1
0 .4 1
0 .4 1
0 .4 1
0 .4 1
0 .4 1
0 .4 1
0 .4 1
0 .4 1
0 .4 1
0 .4 1
0 .4 1
0 .4 1
0 .4 1
0 .4 1
0 .4 1
0 .4 1
0 .4 1
0 .4 1
0 .4 1
0 .4 1
0 .4 1
0 .4 1
0 .4 1
0 .4 1
0 .4 1
0 .4 1
0 .4 1
0 .4 1
2 102.14
2 176.07
0 0 28
0 0 28
0 0 28
0 0 25
0 0 25
0 0 13
0 0 12
0 0 11
0 0 7
0 0 4
0 0 3
0 0 19
0 0 12
0 0 7
0 0 4
0 0 3
0 0 2
0 0 2
0 0 2
0 0 28
0 0 28
0 0 28
0 0 15
0 0 15
0 0 7
0 0 7
0 0 6
0 0 4
0 0 2
0 0 1
0 0 11
0 0 7
0 0 4
0 0 2
0 0 1
0 0 1
0 0 1
0 0 1
3
3
0 0 1
0 0 1
0 0 1
0 0 1
0 0 1
0 0 1
0 0 1
0 0 1
0 0 1
0 0 1
0 0 1
0 0 1
0 0 1
0 0 1
0 0 1
0 0 1
0 0 1
0 0 1
0 0 1
0 0 1
0 0 1
x40
0 .4
1 .4
2 .4
3 .4
4 .4
5 .4
6 .4
7 .4
8 .4
9 .4
10 .4
11 .4
12 .4
13 .4
14 .4
15 .4
16 .4
17 .4
18 .4
19 .4
20 .4
21 .4
22 .4
23 .4
24 .4
25 .4
26 .4
27 .4
28 .4
29 .4
30 .4
31 .4
32 .4
33 .4
34 .4
35 .4
36 .4
37 .4
38 102.14
39 176.07
r
4 0
4 -1
4 -1
4 -1
4 -1
4 -1
4 -1
4 -1
4 -1
4 -1
4 -1
4 -1
4 -1
4 -1
4 -1
4 -1
4 -1
4 -1
4 -1
4 -1
4 0
1 0
1 0
2 0
2 0
1 0
1 0
C0
o16
o0
o2
n.98488578017961
o5
v38
n.5
o2
n.98488578017961
o5
v39
n.5
C1
o2
n-3.84615384615385e-4
o0
o2
o2
v40
v0
v38
o2
o2
v59
v19
v39
C2
o2
n-4.34782608695652e-4
o0
o2
o2
v41
v1
v38
o2
o2
v60
v20
v39
C3
o2
n-5.88235294117647e-4
o0
o2
o2
v42
v2
v38
o2
o2
v61
v21
v39
C4
o2
n-1.88679245283019e-3
o0
o2
o2
v43
v3
v38
o2
o2
v62
v22
v39
C5
o2
n-1.88679245283019e-3
o0
o2
o2
v44
v4
v38
o2
o2
v63
v23
v39
C6
o2
n-3.57142857142857e-3
o0
o2
o2
v45
v5
v38
o2
o2
v64
v24
v39
C7
o2
n-4e-3
o0
o2
o2
v46
v6
v38
o2
o2
v65
v25
v39
C8
o2
n-4.34782608695652e-3
o0
o2
o2
v47
v7
v38
o2
o2
v66
v26
v39
C9
o2
n-6.25e-3
o0
o2
o2
v48
v8
v38
o2
o2
v67
v27
v39
C10
o2
n-1.11111111111111e-2
o0
o2
o2
v49
v9
v38
o2
o2
v68
v28
v39
C11
o2
n-1.42857142857143e-2
o0
o2
o2
v50
v10
v38
o2
o2
v69
v29
v39
C12
o2
n-2.56410256410256e-3
o0
o2
o2
v51
v11
v38
o2
o2
v70
v30
v39
C13
o2
n-4e-3
o0
o2
o2
v52
v12
v38
o2
o2
v71
v31
v39
C14
o2
n-6.25e-3
o0
o2
o2
v53
v13
v38
o2
o2
v72
v32
v39
C15
o2
n-1e-2
o0
o2
o2
v54
v14
v38
o2
o2
v73
v33
v39
C16
o2
n-1.42857142857143e-2
o0
o2
o2
v55
v15
v38
o2
o2
v74
v34
v39
C17
o2
n-2e-2
o0
o2
o2
v56
v16
v38
o2
o2
v75
v35
v39
C18
o2
n-2e-2
o0
o2
o2
v57
v17
v38
o2
o2
v76
v36
v39
C19
o2
n-2e-2
o0
o2
o2
v58
v18
v38
o2
o2
v77
v37
v39
C20
n0
C21
n0
C22
n0
C23
n0
C24
n0
C25
n0
C26
n0
O0 0
n0
k100
1
2
3
4
5
6
7
8
9
10
11
12
13
14
15
16
17
18
19
20
21
22
23
24
25
26
27
28
29
30
31
32
33
34
35
36
37
38
60
82
84
86
88
90
92
94
96
98
100
102
104
106
108
110
112
114
116
118
120
122
124
126
128
130
132
134
136
138
140
142
144
146
148
150
152
154
156
158
159
160
161
162
163
164
165
166
167
168
169
170
171
172
173
174
175
176
177
178
179
183
J0 3
38 0
39 0
78 1
J1 7
0 0
19 0
38 0
39 0
40 0
59 0
80 1
J2 7
1 0
20 0
38 0
39 0
41 0
60 0
81 1
J3 7
2 0
21 0
38 0
39 0
42 0
61 0
82 1
J4 7
3 0
22 0
38 0
39 0
43 0
62 0
83 1
J5 7
4 0
23 0
38 0
39 0
44 0
63 0
84 1
J6 7
5 0
24 0
38 0
39 0
45 0
64 0
85 1
J7 7
6 0
25 0
38 0
39 0
46 0
65 0
86 1
J8 7
7 0
26 0
38 0
39 0
47 0
66 0
87 1
J9 7
8 0
27 0
38 0
39 0
48 0
67 0
88 1
J10 7
9 0
28 0
38 0
39 0
49 0
68 0
89 1
J11 7
10 0
29 0
38 0
39 0
50 0
69 0
90 1
J12 7
11 0
30 0
38 0
39 0
51 0
70 0
91 1
J13 7
12 0
31 0
38 0
39 0
52 0
71 0
92 1
J14 7
13 0
32 0
38 0
39 0
53 0
72 0
93 1
J15 7
14 0
33 0
38 0
39 0
54 0
73 0
94 1
J16 7
15 0
34 0
38 0
39 0
55 0
74 0
95 1
J17 7
16 0
35 0
38 0
39 0
56 0
75 0
96 1
J18 7
17 0
36 0
38 0
39 0
57 0
76 0
97 1
J19 7
18 0
37 0
38 0
39 0
58 0
77 0
98 1
J20 3
79 1
99 -2.45
100 -2.45
J21 20
40 6
41 6
42 6
43 6
44 6
45 6
46 6
47 6
48 6
49 6
50 6
51 6
52 6
53 6
54 6
55 6
56 6
57 6
58 6
99 -168
J22 20
59 6
60 6
61 6
62 6
63 6
64 6
65 6
66 6
67 6
68 6
69 6
70 6
71 6
72 6
73 6
74 6
75 6
76 6
77 6
100 -168
J23 2
38 1
99 -102.14
J24 2
39 1
100 -176.07
J25 2
38 1
99 -2.5e2
J26 2
39 1
100 -2.5e2
G0 2
78 1
79 1
